
(set-logic QF_BV)

(define-fun min () (_ BitVec 11) (bvnot (bvlshr (bvnot (_ bv0 11)) (_ bv1 11))))

(define-fun max () (_ BitVec 11) (bvnot min))

(define-fun udivtotal ((a (_ BitVec 11)) (b (_ BitVec 11))) (_ BitVec 11)
  (ite (= b (_ bv0 11)) (bvnot (_ bv0 11)) (bvudiv a b))
)
(define-fun uremtotal ((a (_ BitVec 11)) (b (_ BitVec 11))) (_ BitVec 11)
  (ite (= b (_ bv0 11)) a (bvurem a b))
)

(declare-fun s () (_ BitVec 11))
(declare-fun t () (_ BitVec 11))
(define-fun inv ((s (_ BitVec 11)) (t (_ BitVec 11))) (_ BitVec 11) (bvand #b10000000000 t))
(define-fun l ((x (_ BitVec 11))) Bool  (bvsge (bvashr s (inv s t)) t))
(define-fun SC () Bool (not (and (bvult t (bvnot t)) (bvslt s t))))
(define-fun is_cond_inv () Bool (=> SC (l (inv s t))))

(assert (not is_cond_inv))
(check-sat)
